NAME: tsp_15
TYPE: TSP
DIMENSION: 15
EDGE_WEIGHT_TYPE: EUC_2D
NODE_COORD_SECTION
1 4 268
2 73 391
3 77 326
4 2 198
5 92 97
6 41 296
7 8 190
8 71 243
9 54 317
10 10 2
11 88 102
12 85 14
13 81 103
14 50 42
15 96 210
EOF
